17	4
13	11	12	11	
0	0	0	0	0	3	2	3	4	
2	0	0	3	4	3	8	13	17	
5	0	0	5	0	3	5	6	17	
5	8	0	0	0	2	17	17	
1	7	0	2	8	3	8	9	17	
100	10	7	6	0	3	7	10	17	
50	8	2	0	0	3	9	11	16	
225	0	0	2	4	3	10	14	17	
125	7	0	0	6	3	14	15	17	
100	0	6	6	8	3	12	17	17	
225	4	0	5	4	3	17	17	17	
250	0	0	9	0	2	15	17	
9	7	8	2	7	2	15	16	
5	0	9	0	2	3	17	17	17	
5	0	8	0	2	2	17	17	
2	0	10	0	0	3	17	17	17	
0	0	0	0	0	0	
